(declare-const param3 Int)
(declare-const |param2'| Int)
(declare-const param0@pos Int)
(declare-const term_to_project_onto_integralized Int)
(declare-const term_to_project_onto9_integralized Int)
(declare-const param2@width Int)
(declare-const type_err Int)
(declare-const param1 Int)
(declare-const |param0@pos'| Int)
(declare-const param0 Int)
(declare-const phi_tmp0 Int)
(declare-const |param0@width'| Int)
(declare-const tr Int)
(declare-const term_to_project_onto3_integralized Int)
(declare-const |param1@pos'| Int)
(declare-const |param1'| Int)
(declare-const term_to_project_onto8_integralized Int)
(declare-const param0@width Int)
(declare-const |param2@pos'| Int)
(declare-const |param1@width'| Int)
(declare-const term_to_project_onto6_integralized Int)
(declare-const type_err3 Int)
(declare-const param1@width Int)
(declare-const term_to_project_onto2_integralized Int)
(declare-const term_to_project_onto1_integralized Int)
(declare-const term_to_project_onto5_integralized Int)
(declare-const tr2 Int)
(declare-const type_err0 Int)
(declare-const term_to_project_onto4_integralized Int)
(declare-const param3@width Int)
(declare-const |param3@pos'| Int)
(declare-const phi_x Int)
(declare-const param2 Int)
(declare-const term_to_project_onto0_integralized Int)
(declare-const type_err1 Int)
(declare-const phi_y Int)
(declare-const term_to_project_onto10_integralized Int)
(declare-const param3@pos Int)
(declare-const term_to_project_onto7_integralized Int)
(declare-const type_err4 Int)
(declare-const |param3@width'| Int)
(declare-const |param0'| Int)
(declare-const |param2@width'| Int)
(declare-const param1@pos Int)
(declare-const tr1 Int)
(declare-const tr0 Int)
(declare-const |param3'| Int)
(declare-const type_err2 Int)
(declare-const param2@pos Int)
(declare-const phi_tmp Int)
(assert (and (<= (+ (- param1) param0 1) 0)
               (or (and (<= (- param0) 0)
                          (or (and (<= (+ param3 (- param1)) 0)
                                     (= (- phi_tmp) 0))
                                (and (<= (+ (- param3) param1 1) 0)
                                       (= (+ (- phi_tmp) 1) 0)))
                          (= (+ (- phi_tmp0) phi_tmp) 0))
                     (and (<= (+ param0 1) 0) (= (- phi_tmp0) 0)))
               (or (<= (+ phi_tmp0 1) 0) (<= (+ (- phi_tmp0) 1) 0))
               (or (and (<= (+ (- tr0) tr 1) 0) (= (+ (- phi_x) param0) 0)
                          (= (+ (- phi_y) param1 -1) 0))
                     (and (<= (+ (- tr2) tr1) 0) (= (+ (- phi_x) param0 1) 0)
                            (= (+ (- phi_y) param1) 0)))
               (= (+ (- type_err4) |param3@width'|) 0)
               (= (+ (- param2@width) |param2@width'|) 0)
               (= (+ (- type_err3) |param1@width'|) 0)
               (= (+ (- type_err2) |param0@width'|) 0)
               (= (+ (- type_err1) |param3@pos'|) 0)
               (= (+ (- param2@pos) |param2@pos'|) 0)
               (= (+ (- type_err0) |param1@pos'|) 0)
               (= (+ (- type_err) |param0@pos'|) 0)
               (= (+ |param3'| (- param3)) 0) (= (+ (- param2) |param2'|) 0)
               (= (+ |param1'| (- phi_y)) 0) (= (+ |param0'| (- phi_x)) 0)
               (= (+ term_to_project_onto10_integralized
                       (- (+ |param0'| (- param0)))) 0)
               (= (+ term_to_project_onto9_integralized
                       (- (+ |param1'| (- param1)))) 0)
               (= (+ term_to_project_onto8_integralized
                       (- (+ |param2'| (- param2)))) 0)
               (= (+ term_to_project_onto7_integralized
                       (- (+ |param3'| (- param3)))) 0)
               (= (+ term_to_project_onto6_integralized
                       (- (+ |param0@pos'| (- param0@pos)))) 0)
               (= (+ term_to_project_onto5_integralized
                       (- (+ |param1@pos'| (- param1@pos)))) 0)
               (= (+ term_to_project_onto4_integralized
                       (- (+ |param2@pos'| (- param2@pos)))) 0)
               (= (+ term_to_project_onto3_integralized
                       (- (+ |param3@pos'| (- param3@pos)))) 0)
               (= (+ term_to_project_onto2_integralized
                       (- (+ |param0@width'| (- param0@width)))) 0)
               (= (+ term_to_project_onto1_integralized
                       (- (+ |param1@width'| (- param1@width)))) 0)
               (= (+ term_to_project_onto0_integralized
                       (- (+ |param2@width'| (- param2@width)))) 0)
               (= (+ term_to_project_onto_integralized
                       (- (+ |param3@width'| (- param3@width)))) 0)))
(check-sat)